2
120 2
81
20 1 3
21 1 5
22 1 5
23 1 4
24 1 9
25 1 5
26 1 6
27 1 6
28 1 7
29 1 10
30 1 6
31 1 7
32 1 10
33 1 7
34 1 5
35 1 6
36 1 5
37 1 7
38 1 4
39 1 10
40 1 5
41 1 2
42 1 5
43 1 6
44 1 8
45 1 8
46 1 2
47 1 8
48 1 6
49 1 3
50 1 9
51 1 2
52 1 4
53 1 11
54 1 5
55 1 5
56 1 3
57 1 6
58 1 5
59 1 9
60 1 6
61 1 5
62 1 3
63 1 7
64 1 7
65 1 7
66 1 5
67 1 5
68 1 3
69 1 5
70 1 2
71 1 8
72 1 7
73 1 10
74 1 9
75 1 6
76 1 9
77 1 8
78 1 5
79 1 9
80 1 1
81 1 5
82 1 4
83 1 5
84 1 12
85 1 10
86 1 10
87 1 5
88 1 7
89 1 7
90 1 5
91 1 5
92 1 5
93 1 5
94 1 4
95 1 5
96 1 9
97 1 7
98 1 11
99 1 8
100 1 5
